NAME : n80w80.003.589.tour
COMMENT : Length = 589
COMMENT : Found by LKH [Keld Helsgaun] Tue May  2 05:18:29 2017
TYPE : TOUR
DIMENSION : 81
TOUR_SECTION
1
59
49
26
78
20
58
19
18
53
77
71
4
14
52
2
61
72
41
9
12
38
74
43
11
16
48
5
35
62
63
66
40
46
42
56
30
55
75
76
17
37
13
34
3
54
47
23
24
33
6
25
70
8
67
31
64
36
44
10
15
32
57
73
68
22
29
50
69
51
21
65
80
60
7
28
39
79
45
81
27
-1
EOF
